peakDumbCharging = 37000; 
Machine = anon_enum(16); 
machineSpeed = [3700,3700,3700,3700,3700,3700,3700,3700,3700,3700,3700,3700,3700,3700,3700,3700]; 
machineLoad = [3700,3700,3700,3700,3700,3700,3700,3700,3700,3700,3700,3700,3700,3700,3700,3700]; 
Car = anon_enum(38); 
demandCar = [7920,17320,6040,5960,2640,21240,9800,3560,7960,5760,10120,30960,11880,10480,3800,20600,80,2160,9440,1720,4920,2200,3080,6480,9440,12840,4720,3920,28400,4160,15520,9440,21840,18520,3040,2880,30440,10920]; 
arrivalCar = [82,78,76,75,75,71,70,67,66,65,63,62,60,59,59,58,58,58,56,56,56,55,55,54,54,53,52,52,52,52,51,49,47,44,43,43,40,31]; 
departureCar = [85,84,79,79,77,78,74,69,71,67,69,76,66,63,61,65,59,60,60,58,63,57,57,58,57,61,57,55,63,54,60,60,55,51,45,45,51,37]; 
